3
25
0 63 21 27 61 60 20 68 70 35 69 19 36 46 73 47 4 14 18 65 26 44 29 1 72
25
0 41 40 42 55 22 23 48 17 49 54 24 8 38 71 30 9 64 10 58 13 37 57 31 43
28
0 62 15 2 39 11 16 50 5 25 6 52 34 7 45 53 12 56 59 51 33 66 75 74 3 28 67 32
